% demand
num_movements = 29;
loading_factor = [1350, 1400, 1550, 1850, 800, 1050, 1150, 1450, 1850, 1250, 1050, 1900, 1200, 1900, 2000, 1950, 850, 1950, 1250, 1050, 1200, 1700, 1450, 1650, 1000, 1650, 1700, 1200, 800];
pickup_time = [0, 0, 0, 0, 0, 1, 1, 2, 3, 3, 4, 5, 5, 5, 5, 6, 6, 6, 8, 9, 11, 11, 11, 11, 11, 13, 13, 13, 13];
delivery_time = [1, 5, 2, 2, 1, 4, 2, 5, 5, 5, 5, 6, 6, 11, 6, 8, 11, 11, 11, 11, 13, 13, 13, 14, 12, 14, 14, 14, 14];

% transporter definition
total_capacity = 7000;
num_decks = 3;
capacity = [3000, 1000, 3000];

% ways out of decks
num_ways_out = 1;
paths_out = array3d(decks, ways_out, decks, [
% ways out of deck d1
2, 3, 0, 

% ways out of deck d2
3, 0, 0, 

% ways out of deck d3
0, 0, 0,	

]);

